ilp_joint_2/output/acceleration_ilp.lp
Maximize
 
Subject To
 constraint2_1040: <= 1
 constraint2_1041: <= 1
 constraint2_1042: <= 1
 constraint2_1043: <= 1
Bounds
End
