ilp_joint_2/output/acceleration_ilp.mps
NAME acceleration_srl_ilp
* Max problem is converted into Min one
ROWS
 N  OBJ
 L  constraint2_1040
 L  constraint2_1041
 L  constraint2_1042
 L  constraint2_1043
COLUMNS
RHS
    RHS1      constraint2_1040  1
    RHS1      constraint2_1041  1
    RHS1      constraint2_1042  1
    RHS1      constraint2_1043  1
BOUNDS
ENDATA
