ilp_joint_2/output/acceleration_ilp.sol
# Solution for model acceleration_srl_ilp
# Objective value = 0
